c description: Subset cardinality formula for complete_bipartite_graph(6,2)
c generator: CNFgen (0.9.0)
c copyright: (C) 2012-2020 Massimo Lauria <massimo.lauria@uniroma1.it>
c url: https://massimolauria.net/cnfgen
c
p cnf 12 72
-1 -2 0
1 2 0
-3 -4 0
3 4 0
-5 -6 0
5 6 0
-7 -8 0
7 8 0
-9 -10 0
9 10 0
-11 -12 0
11 12 0
-1 -3 -5 -7 0
-1 -3 -5 -9 0
-1 -3 -5 -11 0
-1 -3 -7 -9 0
-1 -3 -7 -11 0
-1 -3 -9 -11 0
-1 -5 -7 -9 0
-1 -5 -7 -11 0
-1 -5 -9 -11 0
-1 -7 -9 -11 0
-3 -5 -7 -9 0
-3 -5 -7 -11 0
-3 -5 -9 -11 0
-3 -7 -9 -11 0
-5 -7 -9 -11 0
1 3 5 7 0
1 3 5 9 0
1 3 5 11 0
1 3 7 9 0
1 3 7 11 0
1 3 9 11 0
1 5 7 9 0
1 5 7 11 0
1 5 9 11 0
1 7 9 11 0
3 5 7 9 0
3 5 7 11 0
3 5 9 11 0
3 7 9 11 0
5 7 9 11 0
-2 -4 -6 -8 0
-2 -4 -6 -10 0
-2 -4 -6 -12 0
-2 -4 -8 -10 0
-2 -4 -8 -12 0
-2 -4 -10 -12 0
-2 -6 -8 -10 0
-2 -6 -8 -12 0
-2 -6 -10 -12 0
-2 -8 -10 -12 0
-4 -6 -8 -10 0
-4 -6 -8 -12 0
-4 -6 -10 -12 0
-4 -8 -10 -12 0
-6 -8 -10 -12 0
2 4 6 8 0
2 4 6 10 0
2 4 6 12 0
2 4 8 10 0
2 4 8 12 0
2 4 10 12 0
2 6 8 10 0
2 6 8 12 0
2 6 10 12 0
2 8 10 12 0
4 6 8 10 0
4 6 8 12 0
4 6 10 12 0
4 8 10 12 0
6 8 10 12 0